(set-logic QF_UFBV)

; SMT-LIBv2 description generated by ¯\_(ツ)_/¯
; yosys-smt2-stbv
; yosys-smt2-module unoptimized
(define-sort |unoptimized_s| () (_ BitVec 65))
(define-fun |unoptimized_is| ((state |unoptimized_s|)) Bool (= ((_ extract 0 0) state) #b1))
(define-fun |unoptimized#0| ((state |unoptimized_s|)) (_ BitVec 32) ((_ extract 32 1) state)) ; \A
(define-fun |unoptimized#1| ((state |unoptimized_s|)) (_ BitVec 32) ((_ extract 64 33) state)) ; \B
(define-fun |unoptimized#2| ((state |unoptimized_s|)) (_ BitVec 33) (bvadd (concat #b0 (|unoptimized#0| state)) (concat #b0 (|unoptimized#1| state)))) ; $add$verilog_examples/even_more_basic/unoptimized.v:5$2_Y
; yosys-smt2-output Z 33
(define-fun |unoptimized_n Z| ((state |unoptimized_s|)) (_ BitVec 33) (|unoptimized#2| state))
; yosys-smt2-input B 32
; yosys-smt2-witness {"offset": 0, "path": ["\\B"], "smtname": "B", "smtoffset": 0, "type": "input", "width": 32}
(define-fun |unoptimized_n B| ((state |unoptimized_s|)) (_ BitVec 32) (|unoptimized#1| state))
; yosys-smt2-input A 32
; yosys-smt2-witness {"offset": 0, "path": ["\\A"], "smtname": "A", "smtoffset": 0, "type": "input", "width": 32}
(define-fun |unoptimized_n A| ((state |unoptimized_s|)) (_ BitVec 32) (|unoptimized#0| state))
(define-fun |unoptimized_a| ((state |unoptimized_s|)) Bool true)
(define-fun |unoptimized_u| ((state |unoptimized_s|)) Bool true)
(define-fun |unoptimized_i| ((state |unoptimized_s|)) Bool true)
(define-fun |unoptimized_h| ((state |unoptimized_s|)) Bool true)
(define-fun |unoptimized_t| ((state |unoptimized_s|) (next_state |unoptimized_s|)) Bool true) ; end of module unoptimized
; yosys-smt2-module optimized
(define-sort |optimized_s| () (_ BitVec 65))
(define-fun |optimized_is| ((state |optimized_s|)) Bool (= ((_ extract 0 0) state) #b1))
(define-fun |optimized#0| ((state |optimized_s|)) (_ BitVec 32) ((_ extract 32 1) state)) ; \B
(define-fun |optimized#1| ((state |optimized_s|)) (_ BitVec 32) ((_ extract 64 33) state)) ; \A
(define-fun |optimized#2| ((state |optimized_s|)) (_ BitVec 33) (bvadd (concat #b0 (|optimized#0| state)) (concat #b0 (|optimized#1| state)))) ; $add$verilog_examples/even_more_basic/optimized.v:5$1_Y
; yosys-smt2-output Z 33
(define-fun |optimized_n Z| ((state |optimized_s|)) (_ BitVec 33) (|optimized#2| state))
; yosys-smt2-input B 32
; yosys-smt2-witness {"offset": 0, "path": ["\\B"], "smtname": "B", "smtoffset": 0, "type": "input", "width": 32}
(define-fun |optimized_n B| ((state |optimized_s|)) (_ BitVec 32) (|optimized#0| state))
; yosys-smt2-input A 32
; yosys-smt2-witness {"offset": 0, "path": ["\\A"], "smtname": "A", "smtoffset": 0, "type": "input", "width": 32}
(define-fun |optimized_n A| ((state |optimized_s|)) (_ BitVec 32) (|optimized#1| state))
(define-fun |optimized_a| ((state |optimized_s|)) Bool true)
(define-fun |optimized_u| ((state |optimized_s|)) Bool true)
(define-fun |optimized_i| ((state |optimized_s|)) Bool true)
(define-fun |optimized_h| ((state |optimized_s|)) Bool true)
(define-fun |optimized_t| ((state |optimized_s|) (next_state |optimized_s|)) Bool true) ; end of module optimized
; yosys-smt2-module miter
(define-sort |miter_s| () (_ BitVec 261))
(define-fun |miter_is| ((state |miter_s|)) Bool (= ((_ extract 0 0) state) #b1))
; yosys-smt2-cell optimized gold
; yosys-smt2-witness {"path": ["\\gold"], "smtname": "gold", "type": "cell"}
(define-fun |miter#0| ((state |miter_s|)) (_ BitVec 33) ((_ extract 33 1) state)) ; \gold_Z
(define-fun |miter_h gold| ((state |miter_s|)) (_ BitVec 65) ((_ extract 98 34) state))
; yosys-smt2-cell unoptimized gate
; yosys-smt2-witness {"path": ["\\gate"], "smtname": "gate", "type": "cell"}
(define-fun |miter#1| ((state |miter_s|)) (_ BitVec 33) ((_ extract 131 99) state)) ; \gate_Z
(define-fun |miter_h gate| ((state |miter_s|)) (_ BitVec 65) ((_ extract 196 132) state))
(define-fun |miter#2| ((state |miter_s|)) Bool (= (|miter#0| state) (|miter#1| state))) ; $auto$miter.cc:242:create_miter_equiv$4
(define-fun |miter#3| ((state |miter_s|)) (_ BitVec 1) (bvnot (ite (|miter#2| state) #b1 #b0))) ; \trigger
; yosys-smt2-output trigger 1
(define-fun |miter_n trigger| ((state |miter_s|)) Bool (= ((_ extract 0 0) (|miter#3| state)) #b1))
(define-fun |miter#4| ((state |miter_s|)) (_ BitVec 32) ((_ extract 228 197) state)) ; \in_A
; yosys-smt2-input in_A 32
; yosys-smt2-witness {"offset": 0, "path": ["\\in_A"], "smtname": "in_A", "smtoffset": 0, "type": "input", "width": 32}
(define-fun |miter_n in_A| ((state |miter_s|)) (_ BitVec 32) (|miter#4| state))
(define-fun |miter#5| ((state |miter_s|)) (_ BitVec 32) ((_ extract 260 229) state)) ; \in_B
; yosys-smt2-input in_B 32
; yosys-smt2-witness {"offset": 0, "path": ["\\in_B"], "smtname": "in_B", "smtoffset": 0, "type": "input", "width": 32}
(define-fun |miter_n in_B| ((state |miter_s|)) (_ BitVec 32) (|miter#5| state))
; yosys-smt2-assert 0 $auto$miter.cc:274:create_miter_equiv$5
(define-fun |miter_a 0| ((state |miter_s|)) Bool (or (|miter#2| state) (not true))) ; $auto$miter.cc:274:create_miter_equiv$5
(define-fun |miter_a| ((state |miter_s|)) Bool (and
  (|miter_a 0| state)
  (|optimized_a| (|miter_h gold| state))
  (|unoptimized_a| (|miter_h gate| state))
))
(define-fun |miter_u| ((state |miter_s|)) Bool (and
  (|optimized_u| (|miter_h gold| state))
  (|unoptimized_u| (|miter_h gate| state))
))
(define-fun |miter_i| ((state |miter_s|)) Bool (and
  (|optimized_i| (|miter_h gold| state))
  (|unoptimized_i| (|miter_h gate| state))
))
(define-fun |miter_h| ((state |miter_s|)) Bool (and
  (= (|miter_is| state) (|optimized_is| (|miter_h gold| state)))
  (= (|miter#4| state) (|optimized_n A| (|miter_h gold| state))) ; optimized.A
  (= (|miter#5| state) (|optimized_n B| (|miter_h gold| state))) ; optimized.B
  (= (|miter#0| state) (|optimized_n Z| (|miter_h gold| state))) ; optimized.Z
  (= (|miter_is| state) (|unoptimized_is| (|miter_h gate| state)))
  (= (|miter#4| state) (|unoptimized_n A| (|miter_h gate| state))) ; unoptimized.A
  (= (|miter#5| state) (|unoptimized_n B| (|miter_h gate| state))) ; unoptimized.B
  (= (|miter#1| state) (|unoptimized_n Z| (|miter_h gate| state))) ; unoptimized.Z
  (|optimized_h| (|miter_h gold| state))
  (|unoptimized_h| (|miter_h gate| state))
))
(define-fun |miter_t| ((state |miter_s|) (next_state |miter_s|)) Bool (and
  (|optimized_t| (|miter_h gold| state) (|miter_h gold| next_state))
  (|unoptimized_t| (|miter_h gate| state) (|miter_h gate| next_state))
)) ; end of module miter
; end of yosys output

(declare-const state |miter_s|)
(assert (|miter_h| state)) ; Hierarchy assertion
(assert (not (|miter_a| state))) ; Miter assertion failure - output of miter is true
(check-sat)
